0 1883
1 1883
2 1883
3 1883
4 1883
5 1697
6 1697
7 1697
8 1697
9 1629
10 1629
11 1629
12 1629
13 1621
14 1621
15 1597
16 1568
17 1568
18 1568
19 1494
20 1494
21 1494
22 1494
23 1494
24 1494
25 1494
26 1494
27 1465
28 1465
29 1451
30 1451
31 1451
32 1451
33 1430
34 1430
35 1430
36 1430
37 1430
38 1412
39 1412
40 1412
41 1412
42 1402
43 1398
44 1372
45 1372
46 1372
47 1372
48 1371
49 1371
50 1371
51 1371
52 1371
53 1371
54 1359
55 1359
56 1311
57 1311
58 1311
59 1308
60 1308
61 1308
62 1299
63 1299
64 1299
65 1299
66 1299
67 1285
68 1285
69 1283
70 1246
71 1246
72 1246
73 1246
74 1246
75 1246
76 1227
77 1227
78 1227
79 1227
80 1227
81 1216
82 1216
83 1209
84 1209
85 1209
86 1190
87 1190
88 1186
89 1186
90 1186
91 1186
92 1186
93 1183
94 1171
95 1146
96 1146
97 1146
98 1146
99 1139
100 1139
101 1139
102 1133
103 1133
104 1133
105 1133
106 1133
107 1133
108 1131
109 1131
110 1125
111 1125
112 1117
113 1114
114 1112
115 1112
116 1104
117 1104
118 1101
119 1101
120 1101
121 1101
122 1096
123 1093
124 1093
125 1077
126 1077
127 1077
128 1077
129 1077
130 1067
131 1067
132 1067
133 1067
134 1067
135 1067
136 1067
137 1067
138 1067
139 1064
140 1064
141 1062
142 1058
143 1058
144 1057
145 1057
146 1057
147 1057
148 1057
149 1053
150 1052
151 1052
152 1050
153 1050
154 1050
155 1045
156 1044
157 1044
158 1044
159 1044
160 1044
161 1044
162 1039
163 1039
164 1037
165 1037
166 1037
167 1037
168 1037
169 1037
170 1037
171 1037
172 1037
173 1031
174 1026
175 1026
176 1026
177 1026
178 1026
179 1026
180 1026
181 1026
182 1026
183 1026
184 1021
185 1021
186 1021
187 1021
188 1021
189 1021
190 1021
191 1021
192 1013
193 1013
194 1013
195 1013
196 1013
197 1013
198 1010
199 1009
200 1009
201 1009
202 1009
203 1009
204 1009
205 1009
206 1007
207 1007
208 1007
209 1000
210 988
211 988
212 988
213 988
214 988
215 988
216 988
217 988
218 988
219 988
220 988
221 988
222 988
223 981
224 981
225 981
226 981
227 981
228 981
229 981
230 981
231 981
232 975
233 975
234 975
235 975
236 975
237 975
238 975
239 975
240 975
241 975
242 975
243 975
244 975
245 975
246 975
247 975
248 975
249 956
250 956
251 956
252 956
253 956
254 956
255 956
256 956
257 956
258 956
259 956
260 956
261 956
262 956
263 956
264 956
265 956
266 956
267 956
268 956
269 956
270 956
271 956
272 956
273 956
274 956
275 954
276 945
277 945
278 945
279 945
280 945
281 945
282 945
283 945
284 945
285 945
286 945
287 945
288 945
289 945
290 945
291 941
292 941
293 941
294 941
295 941
296 941
297 941
298 941
299 941
300 941
301 941
302 941
303 941
304 941
305 941
306 941
307 941
308 941
309 941
310 941
311 941
312 941
313 941
314 941
315 941
316 941
317 941
318 941
319 941
320 941
321 941
322 941
323 941
324 941
325 941
326 941
327 941
328 941
329 941
330 941
331 941
332 941
333 941
334 941
335 941
336 941
337 941
338 941
339 941
340 941
341 941
342 941
343 941
344 941
345 941
346 941
347 941
348 941
349 941
350 941
351 941
352 941
353 941
354 941
355 941
356 941
357 941
358 941
359 941
360 941
361 941
362 941
363 941
364 941
365 941
366 941
367 941
368 941
369 941
370 941
371 941
372 941
373 941
374 941
375 941
376 941
377 941
378 941
379 941
380 941
381 941
382 941
383 941
384 941
385 941
386 941
387 941
388 941
389 941
390 941
391 941
392 941
393 941
394 941
395 941
396 941
397 941
398 941
399 941
400 941
401 941
402 941
403 941
404 941
405 941
406 941
407 941
408 941
409 941
410 941
411 941
412 941
413 941
414 941
415 941
416 941
417 941
418 941
419 941
420 941
421 941
422 941
423 941
424 941
425 941
426 941
427 941
428 941
429 941
430 941
431 941
432 941
433 941
434 941
435 941
436 941
437 941
438 941
439 941
440 941
441 941
442 941
443 941
444 941
445 941
446 941
447 941
448 941
449 941
450 941
451 941
452 941
453 941
454 941
455 941
456 941
457 941
458 941
459 941
460 941
461 941
462 941
463 941
464 941
465 941
466 941
467 941
468 941
469 941
470 941
471 941
472 941
473 941
474 941
475 941
476 941
477 941
478 941
479 941
480 941
481 941
482 941
483 941
484 941
485 941
486 941
487 941
488 941
489 941
490 941
491 941
492 941
493 941
494 941
495 941
496 941
497 941
498 941
499 941
500 941
501 941
502 941
503 941
504 941
505 941
506 941
507 941
508 941
509 941
510 941
511 941
512 941
513 941
514 941
515 941
516 941
517 941
518 941
519 941
520 941
521 941
522 941
523 941
524 941
525 941
526 941
527 941
528 941
529 941
530 941
531 941
532 941
533 941
534 941
535 941
536 941
537 941
538 941
539 941
540 941
541 941
542 941
543 941
544 941
545 941
546 941
547 941
548 941
549 941
550 941
551 941
552 941
553 941
554 941
555 941
556 941
557 941
558 941
559 941
560 941
561 941
562 941
563 941
564 941
565 941
566 941
567 941
568 941
569 941
570 941
571 941
572 941
573 941
574 941
575 941
576 941
577 941
578 941
579 941
580 941
581 941
582 941
583 941
584 941
585 941
586 941
587 941
588 941
589 941
590 941
591 941
592 941
593 941
594 941
595 941
596 941
597 941
598 941
599 941
600 941
601 941
602 941
603 941
604 941
605 941
606 941
607 941
608 941
609 941
610 941
611 941
612 941
613 941
614 941
615 941
616 941
617 941
618 941
619 941
620 941
621 941
622 941
623 941
624 941
625 941
626 941
627 941
628 941
629 941
630 941
631 941
632 941
633 941
634 941
635 941
636 941
637 941
638 941
639 941
640 941
641 941
642 941
643 941
644 941
645 941
646 941
647 941
648 941
649 941
650 941
651 941
652 941
653 941
654 941
655 941
656 941
657 941
658 941
659 941
660 941
661 941
662 941
663 941
664 941
665 941
666 941
667 941
668 941
669 941
670 941
671 941
672 941
673 941
674 941
675 941
676 941
677 941
678 941
679 941
680 941
681 941
682 941
683 941
684 941
685 941
686 941
687 941
688 941
689 941
690 941
691 941
692 941
693 941
694 941
695 941
696 941
697 941
698 941
699 941
700 941
701 941
702 941
703 941
704 941
705 941
706 941
707 941
708 941
709 941
710 941
711 941
712 941
713 941
714 941
715 941
716 941
717 941
718 941
719 941
720 941
721 941
722 941
723 941
724 941
725 941
726 941
727 941
728 941
729 941
730 941
731 941
732 941
733 941
734 941
735 941
736 941
737 941
738 941
739 941
740 941
741 941
742 941
743 941
744 941
745 941
746 941
747 941
748 941
749 941
750 941
751 941
752 941
753 941
754 941
755 941
756 941
757 941
758 941
759 941
760 941
761 941
762 941
763 941
764 941
765 941
766 941
767 941
768 941
769 941
770 941
771 941
772 941
773 933
774 933
775 933
776 933
777 933
778 933
779 933
780 933
781 933
782 933
783 933
784 933
785 933
786 933
787 933
788 933
789 933
790 933
791 933
792 933
793 933
794 933
795 933
796 933
797 933
798 933
799 933
800 933
801 933
802 933
803 933
804 933
805 933
806 933
807 933
808 933
809 933
810 933
811 933
812 933
813 933
814 933
815 933
816 933
817 933
818 933
819 933
820 933
821 933
822 933
823 933
824 933
825 933
826 933
827 933
828 933
829 933
830 933
831 933
832 933
833 933
834 933
835 933
836 933
837 933
838 933
839 933
840 933
841 933
842 933
843 933
844 933
845 933
846 933
847 933
848 933
849 933
850 933
851 933
852 933
853 933
854 933
855 933
856 933
857 933
858 933
859 933
860 933
861 933
862 933
863 933
864 933
865 933
866 933
867 933
868 933
869 933
870 933
871 933
872 933
873 933
874 933
875 933
876 933
877 933
878 933
879 933
880 933
881 933
882 933
883 933
884 933
885 933
886 933
887 933
888 933
889 933
890 933
891 933
892 933
893 933
894 933
895 933
896 933
897 933
898 933
899 933
900 933
901 933
902 933
903 933
904 933
905 933
906 933
907 933
908 933
909 933
910 933
911 933
912 933
913 933
914 933
915 933
916 933
917 933
918 933
919 933
920 933
921 933
922 933
923 933
924 933
925 933
926 933
927 933
928 933
929 933
930 933
931 933
932 933
933 933
934 933
935 933
936 933
937 933
938 933
939 933
940 933
941 933
942 933
943 933
944 933
945 933
946 933
947 933
948 933
949 933
950 933
951 933
952 933
953 933
954 933
955 933
956 933
957 933
958 933
959 933
960 933
961 933
962 933
963 933
964 933
965 933
966 933
967 933
968 933
969 933
970 933
971 933
972 933
973 933
974 933
975 933
976 933
977 933
978 933
979 933
980 933
981 933
982 933
983 933
984 933
985 933
986 933
987 933
988 933
989 933
990 933
991 933
992 933
993 933
994 933
995 933
996 933
997 933
998 933
999 933
Best: [[27,8,14,3,4,24,7],
       [30,23,10,18,20,32,22],
       [13,2,17,31],
       [28,16,11,26,6,21],
       [25,15,19,9,12,5,29]], fitness: 933
